nK = 1806;
nT = 6;
nI = 14;
L = 35;
TT = 371;
np = 1;
nc = 3;
b = [63, 56, 24, 66, 64, 49, 33, 62, 68, 41, 57, 23, 30, 33];
d = [103, 87, 107, 103, 148, 150, 148, 96, 137, 136, 92, 137, 82, 129];
m = [2, 1.2, 2.3, 2.4, 1.6, 2.4, 1.3, 1.3, 1.3, 2.4, 2.5, 1, 2, 2.5];
pt = [0.3, 0.21, 0.29, 0.2, 0.22, 0.22];
st = [18, 10.5, 12.47, 9.8, 9.9, 12.32];
arc = {<1, 0, 1, 1, 0, 0, 0, [1, 1, 1, 1, 1, 1]>, <2, 1, 2, 1, 0, 0, 0, [1, 1, 1, 1, 1, 1]>, <3, 2, 3, 1, 0, 0, 0, [1, 1, 1, 1, 1, 1]>, <4, 3, 4, 1, 0, 0, 0, [1, 1, 1, 1, 1, 1]>, <5, 4, 5, 1, 0, 0, 0, [1, 1, 1, 1, 1, 1]>, <6, 5, 6, 1, 0, 0, 0, [1, 1, 1, 1, 1, 1]>, <7, 6, 7, 1, 0, 0, 0, [1, 1, 1, 1, 1, 1]>, <8, 7, 8, 1, 0, 0, 0, [1, 1, 1, 1, 1, 1]>, <9, 8, 9, 1, 0, 0, 0, [1, 1, 1, 1, 1, 1]>, <10, 9, 10, 1, 0, 0, 0, [1, 1, 1, 1, 1, 1]>, <11, 10, 11, 1, 0, 0, 0, [1, 1, 1, 1, 1, 1]>, <12, 11, 12, 1, 0, 0, 0, [1, 1, 1, 1, 1, 1]>, <13, 12, 13, 1, 0, 0, 0, [1, 1, 1, 1, 1, 1]>, <14, 13, 14, 1, 0, 0, 0, [1, 1, 1, 1, 1, 1]>, <15, 14, 15, 1, 0, 0, 0, [1, 1, 1, 1, 1, 1]>, <16, 15, 16, 1, 0, 0, 0, [1, 1, 1, 1, 1, 1]>, <17, 16, 17, 1, 0, 0, 0, [1, 1, 1, 1, 1, 1]>, <18, 17, 18, 1, 0, 0, 0, [1, 1, 1, 1, 1, 1]>, <19, 18, 19, 1, 0, 0, 0, [1, 1, 1, 1, 1, 1]>, <20, 19, 20, 1, 0, 0, 0, [1, 1, 1, 1, 1, 1]>, <21, 20, 21, 1, 0, 0, 0, [1, 1, 1, 1, 1, 1]>, <22, 21, 22, 1, 0, 0, 0, [1, 1, 1, 1, 1, 1]>, <23, 22, 23, 1, 0, 0, 0, [1, 1, 1, 1, 1, 1]>, <24, 23, 24, 1, 0, 0, 0, [1, 1, 1, 1, 1, 1]>, <25, 24, 25, 1, 0, 0, 0, [1, 1, 1, 1, 1, 1]>, <26, 25, 26, 1, 0, 0, 0, [1, 1, 1, 1, 1, 1]>, <27, 26, 27, 1, 0, 0, 0, [1, 1, 1, 1, 1, 1]>, <28, 27, 28, 1, 0, 0, 0, [1, 1, 1, 1, 1, 1]>, <29, 28, 29, 1, 0, 0, 0, [1, 1, 1, 1, 1, 1]>, <30, 29, 30, 1, 0, 0, 0, [1, 1, 1, 1, 1, 1]>, <31, 30, 31, 1, 0, 0, 0, [1, 1, 1, 1, 1, 1]>, <32, 31, 32, 1, 0, 0, 0, [1, 1, 1, 1, 1, 1]>, <33, 32, 33, 1, 0, 0, 0, [1, 1, 1, 1, 1, 1]>, <34, 33, 34, 1, 0, 0, 0, [1, 1, 1, 1, 1, 1]>, <35, 34, 35, 1, 0, 0, 0, [1, 1, 1, 1, 1, 1]>, <36, 0, 19, 19, 1, 0, 0, [1, 0, 0, 1, 1, 1]>, <37, 1, 20, 19, 1, 0, 0, [1, 0, 0, 1, 1, 1]>, <38, 2, 21, 19, 1, 0, 0, [1, 0, 0, 1, 1, 1]>, <39, 3, 22, 19, 1, 0, 0, [1, 0, 0, 1, 1, 1]>, <40, 4, 23, 19, 1, 0, 0, [1, 0, 0, 1, 1, 1]>, <41, 5, 24, 19, 1, 0, 0, [1, 0, 0, 1, 1, 1]>, <42, 6, 25, 19, 1, 0, 0, [1, 0, 0, 1, 1, 1]>, <43, 7, 26, 19, 1, 0, 0, [1, 0, 0, 1, 1, 1]>, <44, 8, 27, 19, 1, 0, 0, [1, 0, 0, 1, 1, 1]>, <45, 9, 28, 19, 1, 0, 0, [1, 0, 0, 1, 1, 1]>, <46, 10, 29, 19, 1, 0, 0, [1, 0, 0, 1, 1, 1]>, <47, 11, 30, 19, 1, 0, 0, [1, 0, 0, 1, 1, 1]>, <48, 12, 31, 19, 1, 0, 0, [1, 0, 0, 1, 1, 1]>, <49, 13, 32, 19, 1, 0, 0, [1, 0, 0, 1, 1, 1]>, <50, 14, 33, 19, 1, 0, 0, [1, 0, 0, 1, 1, 1]>, <51, 15, 34, 19, 1, 0, 0, [1, 0, 0, 1, 1, 1]>, <52, 16, 35, 19, 1, 0, 0, [1, 0, 0, 1, 1, 1]>, <53, 2, 17, 15, 2, 0, 1, [0, 0, 1, 1, 1, 1]>, <54, 3, 18, 15, 2, 0, 1, [0, 0, 1, 1, 1, 1]>, <55, 4, 19, 15, 2, 0, 1, [0, 0, 1, 1, 1, 1]>, <56, 5, 20, 15, 2, 0, 1, [0, 0, 1, 1, 1, 1]>, <57, 6, 21, 15, 2, 0, 1, [0, 0, 1, 1, 1, 1]>, <58, 11, 26, 15, 2, 0, 1, [0, 0, 1, 1, 1, 1]>, <59, 12, 27, 15, 2, 0, 1, [0, 0, 1, 1, 1, 1]>, <60, 13, 28, 15, 2, 0, 1, [0, 0, 1, 1, 1, 1]>, <61, 14, 29, 15, 2, 0, 1, [0, 0, 1, 1, 1, 1]>, <62, 15, 30, 15, 2, 0, 1, [0, 0, 1, 1, 1, 1]>, <63, 16, 31, 15, 2, 0, 1, [0, 0, 1, 1, 1, 1]>, <64, 17, 32, 15, 2, 0, 1, [0, 0, 1, 1, 1, 1]>, <65, 18, 33, 15, 2, 0, 1, [0, 0, 1, 1, 1, 1]>, <66, 19, 34, 15, 2, 0, 1, [0, 0, 1, 1, 1, 1]>, <67, 20, 35, 15, 2, 0, 1, [0, 0, 1, 1, 1, 1]>, <68, 1, 17, 16, 3, 0, 0, [1, 1, 1, 0, 0, 1]>, <69, 2, 18, 16, 3, 0, 0, [1, 1, 1, 0, 0, 1]>, <70, 3, 19, 16, 3, 0, 0, [1, 1, 1, 0, 0, 1]>, <71, 4, 20, 16, 3, 0, 0, [1, 1, 1, 0, 0, 1]>, <72, 5, 21, 16, 3, 0, 0, [1, 1, 1, 0, 0, 1]>, <73, 6, 22, 16, 3, 0, 0, [1, 1, 1, 0, 0, 1]>, <74, 10, 26, 16, 3, 0, 0, [1, 1, 1, 0, 0, 1]>, <75, 11, 27, 16, 3, 0, 0, [1, 1, 1, 0, 0, 1]>, <76, 12, 28, 16, 3, 0, 0, [1, 1, 1, 0, 0, 1]>, <77, 13, 29, 16, 3, 0, 0, [1, 1, 1, 0, 0, 1]>, <78, 14, 30, 16, 3, 0, 0, [1, 1, 1, 0, 0, 1]>, <79, 15, 31, 16, 3, 0, 0, [1, 1, 1, 0, 0, 1]>, <80, 16, 32, 16, 3, 0, 0, [1, 1, 1, 0, 0, 1]>, <81, 17, 33, 16, 3, 0, 0, [1, 1, 1, 0, 0, 1]>, <82, 18, 34, 16, 3, 0, 0, [1, 1, 1, 0, 0, 1]>, <83, 19, 35, 16, 3, 0, 0, [1, 1, 1, 0, 0, 1]>, <84, 0, 18, 18, 4, 1, 0, [1, 0, 0, 1, 1, 1]>, <85, 1, 19, 18, 4, 1, 0, [1, 0, 0, 1, 1, 1]>, <86, 2, 20, 18, 4, 1, 0, [1, 0, 0, 1, 1, 1]>, <87, 3, 21, 18, 4, 1, 0, [1, 0, 0, 1, 1, 1]>, <88, 4, 22, 18, 4, 1, 0, [1, 0, 0, 1, 1, 1]>, <89, 5, 23, 18, 4, 1, 0, [1, 0, 0, 1, 1, 1]>, <90, 6, 24, 18, 4, 1, 0, [1, 0, 0, 1, 1, 1]>, <91, 8, 26, 18, 4, 1, 0, [1, 0, 0, 1, 1, 1]>, <92, 9, 27, 18, 4, 1, 0, [1, 0, 0, 1, 1, 1]>, <93, 10, 28, 18, 4, 1, 0, [1, 0, 0, 1, 1, 1]>, <94, 11, 29, 18, 4, 1, 0, [1, 0, 0, 1, 1, 1]>, <95, 12, 30, 18, 4, 1, 0, [1, 0, 0, 1, 1, 1]>, <96, 13, 31, 18, 4, 1, 0, [1, 0, 0, 1, 1, 1]>, <97, 14, 32, 18, 4, 1, 0, [1, 0, 0, 1, 1, 1]>, <98, 15, 33, 18, 4, 1, 0, [1, 0, 0, 1, 1, 1]>, <99, 16, 34, 18, 4, 1, 0, [1, 0, 0, 1, 1, 1]>, <100, 17, 35, 18, 4, 1, 0, [1, 0, 0, 1, 1, 1]>, <101, 3, 17, 14, 5, 0, 1, [0, 1, 1, 1, 1, 0]>, <102, 4, 18, 14, 5, 0, 1, [0, 1, 1, 1, 1, 0]>, <103, 5, 19, 14, 5, 0, 1, [0, 1, 1, 1, 1, 0]>, <104, 6, 20, 14, 5, 0, 1, [0, 1, 1, 1, 1, 0]>, <105, 12, 26, 14, 5, 0, 1, [0, 1, 1, 1, 1, 0]>, <106, 13, 27, 14, 5, 0, 1, [0, 1, 1, 1, 1, 0]>, <107, 14, 28, 14, 5, 0, 1, [0, 1, 1, 1, 1, 0]>, <108, 15, 29, 14, 5, 0, 1, [0, 1, 1, 1, 1, 0]>, <109, 17, 31, 14, 5, 0, 1, [0, 1, 1, 1, 1, 0]>, <110, 18, 32, 14, 5, 0, 1, [0, 1, 1, 1, 1, 0]>, <111, 19, 33, 14, 5, 0, 1, [0, 1, 1, 1, 1, 0]>, <112, 20, 34, 14, 5, 0, 1, [0, 1, 1, 1, 1, 0]>, <113, 21, 35, 14, 5, 0, 1, [0, 1, 1, 1, 1, 0]>, <114, 3, 17, 14, 6, 0, 1, [1, 0, 0, 1, 1, 1]>, <115, 4, 18, 14, 6, 0, 1, [1, 0, 0, 1, 1, 1]>, <116, 5, 19, 14, 6, 0, 1, [1, 0, 0, 1, 1, 1]>, <117, 6, 20, 14, 6, 0, 1, [1, 0, 0, 1, 1, 1]>, <118, 12, 26, 14, 6, 0, 1, [1, 0, 0, 1, 1, 1]>, <119, 13, 27, 14, 6, 0, 1, [1, 0, 0, 1, 1, 1]>, <120, 14, 28, 14, 6, 0, 1, [1, 0, 0, 1, 1, 1]>, <121, 15, 29, 14, 6, 0, 1, [1, 0, 0, 1, 1, 1]>, <122, 17, 31, 14, 6, 0, 1, [1, 0, 0, 1, 1, 1]>, <123, 18, 32, 14, 6, 0, 1, [1, 0, 0, 1, 1, 1]>, <124, 19, 33, 14, 6, 0, 1, [1, 0, 0, 1, 1, 1]>, <125, 20, 34, 14, 6, 0, 1, [1, 0, 0, 1, 1, 1]>, <126, 21, 35, 14, 6, 0, 1, [1, 0, 0, 1, 1, 1]>, <127, 4, 17, 13, 7, 0, 0, [1, 0, 0, 1, 1, 1]>, <128, 5, 18, 13, 7, 0, 0, [1, 0, 0, 1, 1, 1]>, <129, 6, 19, 13, 7, 0, 0, [1, 0, 0, 1, 1, 1]>, <130, 13, 26, 13, 7, 0, 0, [1, 0, 0, 1, 1, 1]>, <131, 14, 27, 13, 7, 0, 0, [1, 0, 0, 1, 1, 1]>, <132, 15, 28, 13, 7, 0, 0, [1, 0, 0, 1, 1, 1]>, <133, 18, 31, 13, 7, 0, 0, [1, 0, 0, 1, 1, 1]>, <134, 19, 32, 13, 7, 0, 0, [1, 0, 0, 1, 1, 1]>, <135, 20, 33, 13, 7, 0, 0, [1, 0, 0, 1, 1, 1]>, <136, 21, 34, 13, 7, 0, 0, [1, 0, 0, 1, 1, 1]>, <137, 22, 35, 13, 7, 0, 0, [1, 0, 0, 1, 1, 1]>, <138, 2, 17, 15, 8, 0, 0, [1, 1, 0, 0, 1, 1]>, <139, 3, 18, 15, 8, 0, 0, [1, 1, 0, 0, 1, 1]>, <140, 4, 19, 15, 8, 0, 0, [1, 1, 0, 0, 1, 1]>, <141, 5, 20, 15, 8, 0, 0, [1, 1, 0, 0, 1, 1]>, <142, 6, 21, 15, 8, 0, 0, [1, 1, 0, 0, 1, 1]>, <143, 11, 26, 15, 8, 0, 0, [1, 1, 0, 0, 1, 1]>, <144, 12, 27, 15, 8, 0, 0, [1, 1, 0, 0, 1, 1]>, <145, 13, 28, 15, 8, 0, 0, [1, 1, 0, 0, 1, 1]>, <146, 14, 29, 15, 8, 0, 0, [1, 1, 0, 0, 1, 1]>, <147, 15, 30, 15, 8, 0, 0, [1, 1, 0, 0, 1, 1]>, <148, 16, 31, 15, 8, 0, 0, [1, 1, 0, 0, 1, 1]>, <149, 17, 32, 15, 8, 0, 0, [1, 1, 0, 0, 1, 1]>, <150, 18, 33, 15, 8, 0, 0, [1, 1, 0, 0, 1, 1]>, <151, 19, 34, 15, 8, 0, 0, [1, 1, 0, 0, 1, 1]>, <152, 20, 35, 15, 8, 0, 0, [1, 1, 0, 0, 1, 1]>, <153, 4, 17, 13, 9, 1, 0, [0, 0, 1, 1, 1, 1]>, <154, 5, 18, 13, 9, 1, 0, [0, 0, 1, 1, 1, 1]>, <155, 6, 19, 13, 9, 1, 0, [0, 0, 1, 1, 1, 1]>, <156, 13, 26, 13, 9, 1, 0, [0, 0, 1, 1, 1, 1]>, <157, 14, 27, 13, 9, 1, 0, [0, 0, 1, 1, 1, 1]>, <158, 15, 28, 13, 9, 1, 0, [0, 0, 1, 1, 1, 1]>, <159, 18, 31, 13, 9, 1, 0, [0, 0, 1, 1, 1, 1]>, <160, 19, 32, 13, 9, 1, 0, [0, 0, 1, 1, 1, 1]>, <161, 20, 33, 13, 9, 1, 0, [0, 0, 1, 1, 1, 1]>, <162, 21, 34, 13, 9, 1, 0, [0, 0, 1, 1, 1, 1]>, <163, 22, 35, 13, 9, 1, 0, [0, 0, 1, 1, 1, 1]>, <164, 4, 17, 13, 10, 0, 1, [0, 1, 1, 1, 1, 0]>, <165, 5, 18, 13, 10, 0, 1, [0, 1, 1, 1, 1, 0]>, <166, 6, 19, 13, 10, 0, 1, [0, 1, 1, 1, 1, 0]>, <167, 13, 26, 13, 10, 0, 1, [0, 1, 1, 1, 1, 0]>, <168, 14, 27, 13, 10, 0, 1, [0, 1, 1, 1, 1, 0]>, <169, 15, 28, 13, 10, 0, 1, [0, 1, 1, 1, 1, 0]>, <170, 18, 31, 13, 10, 0, 1, [0, 1, 1, 1, 1, 0]>, <171, 19, 32, 13, 10, 0, 1, [0, 1, 1, 1, 1, 0]>, <172, 20, 33, 13, 10, 0, 1, [0, 1, 1, 1, 1, 0]>, <173, 21, 34, 13, 10, 0, 1, [0, 1, 1, 1, 1, 0]>, <174, 22, 35, 13, 10, 0, 1, [0, 1, 1, 1, 1, 0]>, <175, 0, 17, 17, 11, 0, 0, [1, 1, 1, 0, 0, 1]>, <176, 1, 18, 17, 11, 0, 0, [1, 1, 1, 0, 0, 1]>, <177, 2, 19, 17, 11, 0, 0, [1, 1, 1, 0, 0, 1]>, <178, 3, 20, 17, 11, 0, 0, [1, 1, 1, 0, 0, 1]>, <179, 4, 21, 17, 11, 0, 0, [1, 1, 1, 0, 0, 1]>, <180, 5, 22, 17, 11, 0, 0, [1, 1, 1, 0, 0, 1]>, <181, 6, 23, 17, 11, 0, 0, [1, 1, 1, 0, 0, 1]>, <182, 9, 26, 17, 11, 0, 0, [1, 1, 1, 0, 0, 1]>, <183, 10, 27, 17, 11, 0, 0, [1, 1, 1, 0, 0, 1]>, <184, 11, 28, 17, 11, 0, 0, [1, 1, 1, 0, 0, 1]>, <185, 12, 29, 17, 11, 0, 0, [1, 1, 1, 0, 0, 1]>, <186, 13, 30, 17, 11, 0, 0, [1, 1, 1, 0, 0, 1]>, <187, 14, 31, 17, 11, 0, 0, [1, 1, 1, 0, 0, 1]>, <188, 15, 32, 17, 11, 0, 0, [1, 1, 1, 0, 0, 1]>, <189, 16, 33, 17, 11, 0, 0, [1, 1, 1, 0, 0, 1]>, <190, 17, 34, 17, 11, 0, 0, [1, 1, 1, 0, 0, 1]>, <191, 18, 35, 17, 11, 0, 0, [1, 1, 1, 0, 0, 1]>, <192, 0, 18, 18, 12, 0, 1, [0, 0, 1, 1, 1, 1]>, <193, 1, 19, 18, 12, 0, 1, [0, 0, 1, 1, 1, 1]>, <194, 2, 20, 18, 12, 0, 1, [0, 0, 1, 1, 1, 1]>, <195, 3, 21, 18, 12, 0, 1, [0, 0, 1, 1, 1, 1]>, <196, 4, 22, 18, 12, 0, 1, [0, 0, 1, 1, 1, 1]>, <197, 5, 23, 18, 12, 0, 1, [0, 0, 1, 1, 1, 1]>, <198, 6, 24, 18, 12, 0, 1, [0, 0, 1, 1, 1, 1]>, <199, 8, 26, 18, 12, 0, 1, [0, 0, 1, 1, 1, 1]>, <200, 9, 27, 18, 12, 0, 1, [0, 0, 1, 1, 1, 1]>, <201, 10, 28, 18, 12, 0, 1, [0, 0, 1, 1, 1, 1]>, <202, 11, 29, 18, 12, 0, 1, [0, 0, 1, 1, 1, 1]>, <203, 12, 30, 18, 12, 0, 1, [0, 0, 1, 1, 1, 1]>, <204, 13, 31, 18, 12, 0, 1, [0, 0, 1, 1, 1, 1]>, <205, 14, 32, 18, 12, 0, 1, [0, 0, 1, 1, 1, 1]>, <206, 15, 33, 18, 12, 0, 1, [0, 0, 1, 1, 1, 1]>, <207, 16, 34, 18, 12, 0, 1, [0, 0, 1, 1, 1, 1]>, <208, 17, 35, 18, 12, 0, 1, [0, 0, 1, 1, 1, 1]>, <209, 0, 19, 19, 13, 0, 0, [1, 1, 1, 1, 0, 0]>, <210, 1, 20, 19, 13, 0, 0, [1, 1, 1, 1, 0, 0]>, <211, 2, 21, 19, 13, 0, 0, [1, 1, 1, 1, 0, 0]>, <212, 3, 22, 19, 13, 0, 0, [1, 1, 1, 1, 0, 0]>, <213, 4, 23, 19, 13, 0, 0, [1, 1, 1, 1, 0, 0]>, <214, 5, 24, 19, 13, 0, 0, [1, 1, 1, 1, 0, 0]>, <215, 6, 25, 19, 13, 0, 0, [1, 1, 1, 1, 0, 0]>, <216, 7, 26, 19, 13, 0, 0, [1, 1, 1, 1, 0, 0]>, <217, 8, 27, 19, 13, 0, 0, [1, 1, 1, 1, 0, 0]>, <218, 9, 28, 19, 13, 0, 0, [1, 1, 1, 1, 0, 0]>, <219, 10, 29, 19, 13, 0, 0, [1, 1, 1, 1, 0, 0]>, <220, 11, 30, 19, 13, 0, 0, [1, 1, 1, 1, 0, 0]>, <221, 12, 31, 19, 13, 0, 0, [1, 1, 1, 1, 0, 0]>, <222, 13, 32, 19, 13, 0, 0, [1, 1, 1, 1, 0, 0]>, <223, 14, 33, 19, 13, 0, 0, [1, 1, 1, 1, 0, 0]>, <224, 15, 34, 19, 13, 0, 0, [1, 1, 1, 1, 0, 0]>, <225, 16, 35, 19, 13, 0, 0, [1, 1, 1, 1, 0, 0]>, <226, 1, 17, 16, 14, 0, 1, [1, 1, 1, 0, 0, 1]>, <227, 2, 18, 16, 14, 0, 1, [1, 1, 1, 0, 0, 1]>, <228, 3, 19, 16, 14, 0, 1, [1, 1, 1, 0, 0, 1]>, <229, 4, 20, 16, 14, 0, 1, [1, 1, 1, 0, 0, 1]>, <230, 5, 21, 16, 14, 0, 1, [1, 1, 1, 0, 0, 1]>, <231, 6, 22, 16, 14, 0, 1, [1, 1, 1, 0, 0, 1]>, <232, 10, 26, 16, 14, 0, 1, [1, 1, 1, 0, 0, 1]>, <233, 11, 27, 16, 14, 0, 1, [1, 1, 1, 0, 0, 1]>, <234, 12, 28, 16, 14, 0, 1, [1, 1, 1, 0, 0, 1]>, <235, 13, 29, 16, 14, 0, 1, [1, 1, 1, 0, 0, 1]>, <236, 14, 30, 16, 14, 0, 1, [1, 1, 1, 0, 0, 1]>, <237, 15, 31, 16, 14, 0, 1, [1, 1, 1, 0, 0, 1]>, <238, 16, 32, 16, 14, 0, 1, [1, 1, 1, 0, 0, 1]>, <239, 17, 33, 16, 14, 0, 1, [1, 1, 1, 0, 0, 1]>, <240, 18, 34, 16, 14, 0, 1, [1, 1, 1, 0, 0, 1]>, <241, 19, 35, 16, 14, 0, 1, [1, 1, 1, 0, 0, 1]>};
